NAME : eil101.tsp
TYPE : TOUR
DIMENSION : 101
TOUR_LENGTH : 718.3009285256765
TOUR_SECTION
1
69
27
101
53
58
40
21
73
72
74
22
41
75
56
39
4
54
80
68
77
3
79
33
81
9
51
20
30
70
31
88
7
82
48
47
36
49
64
11
19
62
10
90
32
63
66
65
71
35
34
78
29
24
55
25
67
23
15
43
42
87
97
92
59
99
96
93
85
91
100
37
98
61
16
44
14
38
86
17
45
8
46
83
60
5
84
18
52
89
6
94
95
13
2
57
28
26
12
76
50
-1
